67 134 9 179 178 120 153 195 34 21 142 173 129 103 2 26 106 58 53 149 105 155 99 188 52 156 19 50 86 46 85 125 183 92 24 80 57 17 16 70 117 76 14 197 73 87 184 22 71 7 43 6 45 75 11 32 131 112 190 65 61 3 49 186 170 94 192 171 148 137 68 102 159 191 121 162 194 161 41 122 127 133 196 8 31 175 182 139 25 79 66 72 62 169 113 81 136 77 44 177 96 89 168 193 48 187 59 27 101 60 138 130 143 54 163 107 42 172 165 63 30 109 167 123 145 18 12 141 128 108 35 154 78 36 157 115 91 15 64 1 140 93 10 111 37 144 119 126 82 185 69 147 132 110 23 180 5 33 150 104 124 116 83 90 47 84 40 0 135 176 56 199 189 28 151 114 98 174 13 118 198 100 97 160 29 55 38 4 95 158 166 152 146 164 39 74 88 20 181 51 

